6221036655980908486502,13,1,2,010,6,1,2,03,12,1,2,02,8,1,2,01,5,1,2,04,11,1,2,02,11,1,2,08,3,1,2,07,4,1,2,012,3,1,2,04,12,1,2,09,3,1,2,08,7,1,2,03,2,1,2,06,5,1,2,07,5,1,2,01,1,1,2,014,14,1,2,015,11,1,2,06,4,1,2,01,4,1,2,05,13,1,2,012,12,1,2,01,12,1,2,012,15,1,2,013,5,1,2,07,15,1,2,03,10,1,2,07,12,1,2,010,6,1,2,012,15,1,2,04,12,1,2,014,7,1,2,01,8,1,2,01,8,1,2,08,15,1,2,05,9,1,2,07,12,1,2,09,13,1,2,012,10,1,2,013,8,1,2,08,3,1,2,09,14,1,2,07,7,1,2,011,13,1,2,02,14,1,2,08,14,1,2,05,11,1,2,012,11,1,2,013,1,1,2,0